###################################
### GENERAL SETTINGS FOR THE LAMMPS SCRIPT FOR EQUILIBRATING 
### A COMPLEX COACERVATE SLAB
###################################

neighbor 0.8 bin
neigh_modify one 8000 

###################################
####  GROUPS
####################################

group  pos_chains  type 1
group  neg_chains  type 2
group  chains      type 1 2 

####################################
####  POTENTIALS
####################################
bond_style    fene
bond_coeff    1 30.0 1.5 1.0 1.0  # taken from doi:10.1021/acsmacrolett.5c00323 
special_bonds lj 0.0 1.0 1.0 coul 1.0 1.0 1.0 # taken from Nayan's coacervate paper

pair_style lj/cut/coul/cut 1.12246 10.0

set group pos_chains charge 1.0 
set group neg_chains charge -1.0

####################################
####  VARIABLES DEFINITION
####################################
# variables from input
variable epsilon_PS equal ${epLJ}
variable thickFinal equal ${D}
variable Temp2 equal {T}

# Equilibration variables
variable Temp equal 1.5
variable PressAnn equal 10.0
variable PressEq equal 0.0
variable dt equal 0.005
variable Tdamping equal 100*${dt}
variable Pdamping equal 1000*${dt}
variable velSeed equal 934851

# determine density of coacervate slab
variable mass_chains equal mass(chains)
variable zmin equal bound(chains,zmin)
variable zmax equal bound(chains,zmax)
variable chainVol equal abs(v_zmax-v_zmin)*lx*ly # periodic in xy directions
variable slabDensity equal ${mass_chains}/v_chainVol

# runtimes 
variable runtime equal 20000
variable runtimeShort equal 10000

# final thickness calculation      
variable target_density equal 0.8
variable n_atoms equal atoms
variable Lbox equal (${n_atoms}/(${target_density}*${thickFinal}))^0.5/2 # half of total thickness
variable thick2 equal ${thickFinal}/2
variable thick1 equal ${thick2}+4.0

####################################
#### THERMO-STYLE
####################################
variable thermoT equal 100
thermo  ${thermoT}

compute chainTemp chains temp 
compute	stressA all stress/atom NULL
compute	p all reduce sum c_stressA[1] c_stressA[2] c_stressA[3]
variable pz equal -(c_p[3])/(vol)
variable pxy equal -(c_p[1]+c_p[2])/(2*vol)

compute pSlab chains reduce sum c_stressA[1] c_stressA[2] c_stressA[3] c_stressA[4] c_stressA[5] c_stressA[6]
variable pTotChains equal -(c_pSlab[1]+c_pSlab[2]+c_pSlab[3])/(3*vol)
variable pzChains equal -(c_pSlab[3])/(vol)
variable pxyChains equal -(c_pSlab[1]+c_pSlab[2])/(2*vol)

thermo_style	custom step time temp c_chainTemp ebond epair ecoul evdwl ke etotal enthalpy vol v_chainVol density v_slabDensity press v_pTotChains v_pxy v_pxyChains v_pz v_pzChains  
thermo_modify line yaml format none

####################################
#### INTEGRATION
####################################
timestep      ${dt}
